DIM: 16
FLOW: 
0 2 1 1 2 1 1 2 2 3 0 0 0 0 0 0
2 0 1 1 1 0 0 1 1 2 0 0 0 0 0 0
1 1 0 1 0 0 0 1 1 1 0 0 0 0 0 0
1 1 1 0 0 0 1 1 1 1 0 0 0 0 0 0
2 1 0 0 0 1 1 1 1 2 0 0 0 0 0 0
1 0 0 0 1 0 1 1 1 1 0 0 0 0 0 0
1 0 0 1 1 1 0 1 1 1 0 0 0 0 0 0
2 1 1 1 1 1 1 0 2 2 0 0 0 0 0 0
2 1 1 1 1 1 1 2 0 2 0 0 0 0 0 0
3 2 1 1 2 1 1 2 2 0 0 0 0 0 0 0
0 0 0 0 0 0 0 0 0 0 0 0 0 0 0 0
0 0 0 0 0 0 0 0 0 0 0 0 0 0 0 0
0 0 0 0 0 0 0 0 0 0 0 0 0 0 0 0
0 0 0 0 0 0 0 0 0 0 0 0 0 0 0 0
0 0 0 0 0 0 0 0 0 0 0 0 0 0 0 0
0 0 0 0 0 0 0 0 0 0 0 0 0 0 0 0
FLOW: 
0 0 1 0 1 0 2 1 1 0 2 1 2 1 3 2
0 1 0 0 1 2 0 1 1 2 0 1 2 3 1 2
1 0 0 0 2 1 1 0 2 1 1 0 3 2 2 1
0 1 1 2 0 0 0 1 1 2 2 3 0 1 1 2
1 0 2 1 0 0 1 0 2 1 3 2 1 0 2 1
1 2 0 1 0 1 0 0 2 3 1 2 1 2 0 1
2 1 1 0 1 0 0 0 3 2 2 1 2 1 1 0
0 1 1 2 1 2 2 3 0 0 0 1 0 1 1 2
1 0 2 1 2 1 3 2 0 0 1 0 1 0 2 1
1 2 0 1 2 3 1 2 0 1 0 0 1 2 0 1
2 1 1 0 3 2 2 1 1 0 0 0 2 1 1 0
1 2 2 3 0 1 1 2 0 1 1 2 0 0 0 1
2 1 3 2 1 0 2 1 1 0 2 1 0 0 1 0
2 3 1 2 1 2 0 1 1 2 0 1 0 1 0 0
3 2 2 1 2 1 1 0 2 1 1 0 1 0 0 0

OPT_OBJ: 68
OPT_SOLUTION: 
2 14 10 16 5 3 7 8 4 6 12 11 15 13 9 1 